
n_res = 6;
rcap = [42, 41, 37, 47, 655, 695];
rtype = [1, 1, 1, 1, 2, 2];
n_tasks = 50;
modes =  [{1, 2, 3}, {4, 5, 6}, {7, 8, 9}, {10, 11, 12}, {13, 14, 15}, {16, 17, 18}, {19, 20, 21}, {22, 23, 24}, {25, 26, 27}, {28, 29, 30}, {31, 32, 33}, {34, 35, 36}, {37, 38, 39}, {40, 41, 42}, {43, 44, 45}, {46, 47, 48}, {49, 50, 51}, {52, 53, 54}, {55, 56, 57}, {58, 59, 60}, {61, 62, 63}, {64, 65, 66}, {67, 68, 69}, {70, 71, 72}, {73, 74, 75}, {76, 77, 78}, {79, 80, 81}, {82, 83, 84}, {85, 86, 87}, {88, 89, 90}, {91, 92, 93}, {94, 95, 96}, {97, 98, 99}, {100, 101, 102}, {103, 104, 105}, {106, 107, 108}, {109, 110, 111}, {112, 113, 114}, {115, 116, 117}, {118, 119, 120}, {121, 122, 123}, {124, 125, 126}, {127, 128, 129}, {130, 131, 132}, {133, 134, 135}, {136, 137, 138}, {139, 140, 141}, {142, 143, 144}, {145, 146, 147}, {148, 149, 150}];
succ =  [{48, 35, 30, 29, 19, 16, 7}, {47, 45, 36, 27, 15, 12}, {47, 46, 45, 44, 43, 40, 33, 28, 27, 21, 18}, {50, 49, 45, 40, 33, 27, 24, 22, 18}, {49, 48, 47, 46, 45, 42, 40, 38, 33, 32, 30, 27}, {49, 48, 46, 44, 43, 42, 36, 35, 32, 27}, {47, 44, 43, 42, 34, 33, 28, 21}, {48, 46, 44, 43, 42, 36, 32, 21}, {49, 48, 45, 44, 43, 42, 41, 40, 39, 34, 33, 32}, {49, 47, 45, 40, 27, 18}, {44, 43, 34, 27, 26, 18}, {44, 43, 42, 40, 39, 35, 34, 33, 28}, {46, 44, 43, 40, 39, 35, 32, 31}, {46, 43, 41, 40, 39, 32, 26}, {50, 42, 41, 39, 26}, {43, 41, 40, 39, 38, 32}, {41, 40, 39, 34, 32}, {41, 39, 32, 29}, {40, 39, 33, 26}, {42, 41, 39, 38, 31}, {41, 39, 26}, {43, 38, 32, 31}, {43, 41, 39, 33}, {44, 26}, {40, 39, 31}, {38, 31}, {39, 31}, {32, 31}, {42, 38}, {39, 37}, {37}, {37}, {37}, {38}, {38}, {40}, {}, {}, {}, {}, {}, {}, {}, {}, {}, {}, {}, {}, {}, {}];
n_opt = 150;
dur = [8, 9, 27, 3, 11, 28, 1, 6, 28, 4, 23, 24, 2, 20, 21, 7, 9, 15, 7, 10, 30, 4, 5, 26, 7, 8, 9, 2, 5, 14, 14, 23, 28, 1, 5, 21, 8, 18, 21, 2, 4, 10, 11, 12, 17, 15, 17, 21, 4, 13, 19, 8, 12, 26, 5, 11, 30, 4, 12, 15, 3, 19, 25, 5, 20, 25, 4, 7, 30, 2, 4, 23, 12, 17, 30, 4, 25, 27, 17, 23, 25, 14, 19, 22, 2, 16, 23, 10, 11, 24, 1, 2, 22, 5, 8, 10, 13, 27, 30, 2, 9, 14, 15, 19, 26, 5, 18, 20, 6, 18, 19, 10, 16, 20, 17, 19, 21, 5, 18, 23, 10, 11, 22, 15, 18, 19, 24, 26, 27, 3, 4, 20, 6, 12, 23, 4, 15, 20, 11, 12, 23, 2, 5, 13, 3, 23, 27, 4, 7, 28];
rreq = [|5, 4, 3, 3, 2, 1, 3, 3, 2, 4, 3, 1, 4, 4, 4, 4, 4, 4, 3, 3, 2, 2, 1, 1, 4, 4, 4, 4, 3, 3, 4, 4, 4, 4, 4, 4, 4, 4, 4, 4, 2, 2, 1, 1, 1, 5, 4, 4, 4, 4, 4, 5, 2, 2, 5, 5, 5, 1, 1, 1, 3, 1, 1, 2, 2, 2, 3, 3, 3, 1, 1, 1, 2, 2, 2, 4, 3, 3, 4, 4, 4, 4, 4, 4, 4, 2, 2, 3, 3, 2, 5, 5, 5, 2, 2, 2, 3, 3, 3, 3, 2, 2, 5, 4, 4, 1, 1, 1, 3, 2, 2, 4, 2, 2, 4, 3, 3, 1, 1, 1, 4, 4, 4, 1, 1, 1, 4, 2, 1, 2, 2, 2, 5, 4, 3, 5, 5, 5, 4, 3, 3, 5, 4, 2, 3, 3, 3, 3, 3, 2
 |3, 3, 3, 2, 1, 1, 5, 4, 4, 4, 4, 4, 4, 3, 2, 3, 3, 3, 3, 3, 2, 5, 3, 3, 4, 4, 3, 4, 3, 2, 2, 2, 2, 1, 1, 1, 4, 3, 3, 2, 1, 1, 4, 2, 2, 4, 4, 4, 3, 3, 3, 5, 5, 5, 4, 3, 3, 3, 3, 3, 1, 1, 1, 4, 3, 2, 1, 1, 1, 2, 2, 2, 4, 3, 3, 4, 4, 4, 2, 2, 2, 2, 2, 2, 2, 1, 1, 5, 4, 2, 4, 4, 4, 4, 4, 3, 4, 3, 3, 4, 2, 1, 3, 2, 2, 2, 2, 2, 5, 3, 3, 3, 3, 3, 3, 2, 2, 4, 4, 3, 3, 2, 1, 1, 1, 1, 1, 1, 1, 2, 1, 1, 5, 4, 4, 3, 2, 2, 2, 2, 2, 2, 1, 1, 4, 4, 4, 5, 4, 3
 |3, 2, 2, 4, 4, 4, 4, 3, 3, 3, 3, 2, 3, 3, 3, 2, 2, 2, 5, 4, 4, 3, 2, 2, 2, 2, 2, 3, 3, 2, 2, 2, 2, 3, 3, 3, 5, 4, 2, 1, 1, 1, 2, 2, 2, 4, 4, 3, 2, 2, 1, 5, 4, 3, 3, 3, 3, 4, 4, 3, 3, 1, 1, 3, 3, 2, 3, 3, 2, 3, 3, 3, 3, 3, 1, 5, 4, 3, 5, 4, 2, 3, 2, 2, 5, 4, 4, 3, 3, 1, 3, 3, 2, 4, 2, 2, 4, 2, 2, 3, 3, 1, 5, 4, 3, 3, 2, 2, 1, 1, 1, 5, 4, 4, 2, 1, 1, 3, 2, 2, 4, 4, 4, 1, 1, 1, 3, 3, 3, 5, 4, 3, 4, 3, 2, 2, 2, 2, 4, 3, 2, 3, 2, 2, 2, 1, 1, 4, 4, 4
 |4, 3, 3, 3, 1, 1, 4, 4, 4, 5, 2, 1, 5, 2, 1, 4, 2, 2, 4, 3, 3, 4, 4, 4, 4, 3, 3, 1, 1, 1, 4, 4, 4, 3, 2, 2, 4, 4, 4, 5, 2, 1, 4, 3, 2, 3, 2, 2, 5, 5, 5, 3, 2, 2, 4, 3, 2, 4, 3, 2, 2, 2, 2, 4, 2, 2, 2, 1, 1, 2, 2, 1, 4, 4, 4, 3, 3, 1, 4, 4, 3, 3, 3, 1, 2, 2, 2, 3, 2, 2, 4, 4, 3, 4, 2, 2, 3, 3, 3, 1, 1, 1, 5, 3, 3, 3, 2, 1, 4, 3, 2, 3, 2, 2, 4, 3, 2, 3, 3, 1, 3, 2, 1, 5, 5, 5, 2, 1, 1, 4, 4, 4, 5, 4, 4, 4, 4, 4, 3, 3, 1, 1, 1, 1, 3, 2, 1, 2, 2, 1
 |22, 20, 19, 18, 18, 7, 28, 22, 17, 4, 4, 4, 7, 5, 5, 27, 24, 23, 19, 18, 5, 22, 22, 20, 28, 27, 26, 27, 21, 20, 21, 19, 19, 29, 24, 19, 16, 13, 9, 19, 13, 6, 27, 21, 16, 19, 15, 13, 27, 22, 9, 4, 3, 3, 6, 6, 2, 13, 9, 6, 24, 22, 17, 20, 11, 5, 14, 11, 4, 27, 26, 21, 18, 9, 7, 18, 17, 8, 18, 6, 6, 21, 11, 3, 23, 13, 12, 18, 16, 9, 13, 8, 3, 17, 15, 8, 14, 11, 5, 27, 19, 10, 24, 21, 18, 29, 28, 28, 18, 15, 13, 15, 13, 10, 25, 24, 22, 16, 16, 11, 17, 9, 8, 18, 13, 11, 11, 9, 6, 12, 8, 6, 23, 16, 13, 21, 19, 12, 23, 17, 9, 19, 10, 5, 19, 14, 9, 23, 12, 4
 |22, 13, 7, 21, 20, 15, 9, 7, 6, 24, 22, 15, 7, 7, 6, 18, 10, 3, 24, 22, 19, 20, 16, 15, 23, 18, 8, 17, 14, 9, 28, 26, 25, 22, 20, 20, 17, 17, 17, 14, 14, 12, 14, 11, 10, 12, 11, 11, 9, 7, 6, 14, 10, 9, 23, 22, 21, 24, 24, 24, 28, 22, 20, 28, 19, 17, 23, 23, 19, 13, 12, 5, 12, 11, 11, 15, 12, 12, 8, 6, 2, 25, 24, 23, 7, 7, 7, 29, 28, 28, 23, 22, 18, 11, 8, 6, 14, 14, 14, 23, 19, 12, 15, 8, 4, 30, 19, 4, 28, 23, 19, 27, 20, 15, 26, 18, 15, 6, 4, 1, 18, 7, 5, 9, 8, 6, 22, 17, 10, 10, 10, 9, 6, 6, 6, 19, 18, 18, 16, 16, 15, 3, 2, 1, 30, 25, 25, 20, 20, 20|];